n_res = 5;
n_events = 202;
n_prec = 1025;
source = 1;
sink = 202;
min_lvl = [-39, 12, 7, -24, -9];
max_lvl = [-15, 53, 39, -6, 9];
rr = [| 0, 0, 0, 1, 0, -2, -1, 0, -1, -2, 0, -2, -1, -1, 0, -1, -2, -2, -1, 0, 1, -1, -2, 1, 0, -1, -2, -1, -1, 0, 1, -2, 1, 0, 1, 0, 0, 1, 0, -1, 2, 1, 0, -1, 1, -1, 2, -1, -1, 0, -1, 1, 0, 0, 1, -1, -2, 0, 0, 1, 2, -2, -1, -1, 0, -1, -1, 2, 1, -2, -1, 2, 2, 0, 0, 0, 0, 1, 1, 2, 1, 0, -1, -2, 2, -1, 2, -2, 2, 0, -1, -1, 0, 0, 0, -1, 2, -2, -2, 1, -2, 1, -1, -1, 1, 0, -1, 0, 0, 0, 0, 1, -1, 1, -2, -1, 0, 1, -1, -2, 2, 1, 0, 2, 0, 1, -1, 2, 0, 0, -2, 0, 2, -2, 0, 2, 0, -1, 2, 2, -2, -1, 1, 1, -2, -2, 2, 2, 1, 0, -2, 1, -1, 0, 0, 1, -2, 2, -1, 1, -1, 2, -2, -2, -1, 2, 2, 0, 1, -2, 1, 2, 0, 0, -1, -2, 2, -2, 2, -1, 0, -2, -2, -2, -2, -2, 0, -1, -2, -1, -2, 0, -1, -1, -1, 0, 0, 1, -1, 0, 1, 0
      | 0, 0, -1, 2, -1, -2, -1, 1, 2, 1, 0, 0, -1, 0, 2, -1, 1, 1, 2, 2, 0, 2, 1, 0, -1, 0, 1, -2, 2, -2, 0, -1, 1, 2, 0, 0, -1, -1, -2, -2, 0, -1, 1, 0, 1, -2, 1, -1, 1, 0, -2, -2, 0, -1, 1, -1, 1, 2, 0, 1, -2, 1, -2, -2, 0, -2, 1, 2, 0, 0, -2, 2, 1, 2, 0, 2, 0, -2, -1, 1, -1, 2, 1, -2, 1, 1, 2, 2, -1, 0, 1, -1, -1, 2, 2, 2, 2, 2, 2, 1, -2, -1, 2, -1, 2, -2, -1, -2, 2, -2, 2, -2, 2, 0, 0, 2, 0, 1, 2, -2, -2, 0, -2, 0, 0, 2, -2, 0, 2, -1, 0, -2, 2, 2, 0, -1, 0, 1, 0, -2, 0, 2, 2, 0, -2, 2, 2, 1, -1, 1, 1, 2, 2, 0, -2, 2, 1, 2, 0, 0, -1, -1, 1, 0, -1, 2, -1, 0, 0, 2, 1, -2, 1, 0, 1, 2, 1, 1, -1, 2, 2, 1, 1, -1, 0, 1, 0, 1, 2, -2, 2, 0, 2, 1, 1, 1, 0, 0, 2, 0, 0, 0
      | 0, -1, 1, 2, 0, 2, 1, 1, -2, -2, 0, 2, 1, 0, -1, 2, 2, 0, 2, 0, 0, 1, 2, 1, 2, 2, -2, -2, -2, 0, 0, -1, -2, 0, 2, 1, -2, 0, 2, 2, 0, 0, 2, 0, 2, -1, -1, -2, -1, -1, -1, 1, -2, 0, -1, -1, 0, 2, 2, 0, -2, -2, -1, 2, -1, -2, -1, -2, -2, 2, 2, -1, 1, 2, -1, -1, -2, 2, -1, 1, -2, 2, 2, -1, -2, -1, -2, -1, -2, 0, -1, 0, 0, 0, -1, 0, -1, -2, 0, 2, -2, 1, 1, 2, 1, 2, 2, 0, 0, 0, 2, 2, 1, 1, 2, 2, 1, 1, 2, -2, -1, -2, -1, 0, -1, -2, -2, 2, 2, 1, 0, 1, -1, 2, -1, 1, 1, 1, 0, -2, 0, 2, -1, 0, 1, 0, -1, 2, -2, -1, 0, 1, 2, 0, -2, 1, 0, 2, -1, 0, 2, 0, 1, 1, 1, -1, 1, 0, 1, 0, 0, 2, 1, -2, 0, 2, -2, 2, 1, 1, -2, 0, 2, 1, 2, 2, 0, 2, 1, 1, -1, 2, -2, 0, -1, 1, 2, 0, -1, 0, 1, 0
      | 0, -1, 2, -1, 0, 0, -2, 2, 1, -2, 1, 0, -2, -1, 0, 2, 1, -2, 2, -1, -1, 1, 1, -2, 0, 0, -2, -2, 2, 2, -1, -1, -2, 0, 0, -1, 2, -1, 0, -2, 2, 0, -2, 0, 0, 2, -2, -2, -1, 0, 2, 2, -2, 0, 0, 0, 1, -2, -2, 1, -1, 1, -2, -1, 0, -2, -1, 2, 1, 1, -1, -2, 1, 2, 0, -2, -1, -2, -1, 2, -1, 0, 1, 2, 1, 1, -1, 1, 1, 2, -2, 1, 0, 0, -1, 0, -2, -1, -2, 1, 1, -2, -1, -2, -2, 0, -1, -1, 0, -1, 0, -2, 1, -2, 1, -1, -1, -1, -1, -1, 2, 0, 2, -1, -1, -1, 1, -1, 0, 0, 0, 1, 0, 2, 0, 0, 2, 2, -2, 1, 0, -2, 1, 0, 1, -2, 2, -2, 2, 0, 1, 1, 0, -2, 2, 1, -2, 1, -2, -1, -2, 0, 2, 2, 2, 2, 1, -1, 0, 1, 1, 0, 0, 0, 1, -2, -2, -1, 2, 2, 1, 0, 2, 2, -2, 2, 0, 0, 1, 2, -1, 0, -2, -1, 1, 0, -2, 0, -2, 1, -1, 0
      | 0, -1, 0, -1, 0, -1, -2, 0, 2, 0, 0, 0, 0, 1, 0, -1, 1, 0, 1, -1, 1, -2, 2, 1, 0, -2, 1, 1, 1, 2, 0, 0, 2, -2, 0, -2, 2, 1, 2, -2, 0, -1, 2, -1, -1, 0, 1, -2, 1, -2, -1, 2, 1, 2, -1, 2, 0, 0, 0, 0, 0, -1, -1, -1, 0, 2, -2, 2, 2, 0, 0, 1, 2, 0, -1, 0, 2, 0, 2, -2, 1, -1, -2, 0, -2, 0, -2, -2, -2, -1, -1, 0, 1, 2, -2, 2, 2, -1, 1, -2, -2, -2, -2, -2, -1, 0, 1, -2, 1, 0, 0, -2, 1, 0, 0, 2, 0, 2, -2, -1, 0, -2, -2, 1, 2, 2, -2, 0, 0, 0, -1, 0, 1, 0, 2, 0, 0, -1, 2, 1, -2, 1, 2, 2, -1, 0, 1, -1, -2, 0, -1, -1, -1, 1, 2, 0, 0, 2, -2, -1, -1, -1, 0, -2, 1, 0, 1, 0, 0, 2, 2, 0, 1, -2, -1, -2, 2, -1, 1, -1, 0, -1, -2, -1, 0, -2, 2, 2, -1, 2, 2, -2, -2, 0, 1, 2, 0, 1, -1, 2, 2, 0 |];
prec = [| 1, 0, 6
        | 1, 0, 12
        | 1, 0, 194
        | 1, 0, 9
        | 1, 0, 4
        | 1, 0, 14
        | 1, 0, 11
        | 1, 0, 2
        | 1, 0, 10
        | 1, 0, 3
        | 1, 0, 8
        | 1, 0, 13
        | 1, 0, 7
        | 1, 0, 153
        | 1, 0, 5
        | 1, 0, 15
        | 2, 3, 104
        | 2, 3, 60
        | 3, 15, 37
        | 3, 9, 170
        | 3, 3, 175
        | 4, 13, 193
        | 4, -2, 153
        | 4, 8, 72
        | 5, -6, 122
        | 5, 6, 116
        | 5, 3, 78
        | 6, 13, 70
        | 6, 17, 48
        | 6, 16, 128
        | 6, 3, 156
        | 7, 16, 61
        | 7, 5, 65
        | 7, 1, 150
        | 7, -6, 103
        | 7, 12, 54
        | 7, 5, 40
        | 7, 14, 124
        | 8, 7, 35
        | 9, -1, 117
        | 9, 7, 43
        | 9, 16, 61
        | 9, 9, 63
        | 9, 14, 25
        | 9, 13, 68
        | 10, 3, 55
        | 10, 1, 154
        | 10, 2, 87
        | 10, 2, 198
        | 10, 6, 98
        | 10, 0, 173
        | 11, -7, 162
        | 11, 10, 42
        | 11, 10, 53
        | 11, 23, 80
        | 12, -1, 194
        | 12, 4, 202
        | 13, 0, 149
        | 13, 0, 169
        | 13, 12, 179
        | 13, 0, 164
        | 14, 4, 67
        | 14, 0, 201
        | 15, 1, 105
        | 15, 2, 192
        | 15, 4, 17
        | 15, 7, 142
        | 15, 0, 123
        | 15, 5, 178
        | 15, -1, 80
        | 16, -451, 132
        | 16, 24, 60
        | 16, 12, 80
        | 16, -277, 142
        | 16, 13, 42
        | 16, 13, 87
        | 16, 11, 106
        | 16, -216, 123
        | 16, 13, 88
        | 16, -461, 17
        | 16, 20, 109
        | 16, 19, 47
        | 17, 5, 99
        | 17, 1, 150
        | 18, 0, 199
        | 19, 16, 142
        | 19, -1, 160
        | 19, 15, 63
        | 19, 3, 57
        | 20, 5, 143
        | 20, -96, 26
        | 20, -94, 118
        | 20, 1, 21
        | 20, 5, 181
        | 20, 4, 27
        | 20, 1, 83
        | 20, 0, 195
        | 21, -50, 27
        | 21, -92, 8
        | 21, 10, 83
        | 21, 15, 195
        | 21, 13, 181
        | 22, 0, 31
        | 22, -8, 198
        | 22, -6, 87
        | 22, -8, 106
        | 23, 1, 47
        | 23, 0, 99
        | 24, 1, 162
        | 24, 3, 40
        | 24, 1, 157
        | 25, 5, 187
        | 25, 7, 184
        | 25, 0, 129
        | 25, -2, 196
        | 25, 6, 38
        | 25, -3, 110
        | 25, 3, 94
        | 25, -1, 53
        | 25, 8, 151
        | 25, -2, 155
        | 26, 6, 27
        | 26, 6, 117
        | 26, 7, 181
        | 26, -4, 118
        | 27, 3, 83
        | 27, 0, 195
        | 27, -40, 108
        | 27, 0, 143
        | 27, -46, 20
        | 28, -70, 58
        | 28, 1, 136
        | 28, 30, 200
        | 28, -95, 69
        | 29, -262, 7
        | 29, -186, 139
        | 29, -195, 30
        | 29, -204, 180
        | 29, -96, 71
        | 29, -199, 119
        | 29, -156, 134
        | 29, -183, 185
        | 29, -4, 182
        | 29, 0, 141
        | 29, -200, 124
        | 30, 11, 107
        | 30, -243, 104
        | 30, 17, 17
        | 30, 5, 40
        | 30, -116, 134
        | 30, 1, 111
        | 30, -232, 2
        | 30, 15, 77
        | 30, 6, 168
        | 30, -5, 142
        | 31, 24, 87
        | 31, -49, 98
        | 31, 15, 55
        | 31, 10, 163
        | 32, -2, 125
        | 32, -1, 99
        | 32, 6, 159
        | 32, -448, 66
        | 32, 0, 80
        | 33, 26, 183
        | 33, 0, 189
        | 34, 0, 108
        | 34, 8, 20
        | 34, 0, 83
        | 34, 0, 27
        | 34, 6, 195
        | 35, -3, 62
        | 35, 6, 195
        | 35, 0, 83
        | 35, 6, 118
        | 36, 0, 87
        | 36, 0, 162
        | 36, 2, 133
        | 36, 1, 80
        | 36, 2, 47
        | 36, 2, 106
        | 37, -1, 171
        | 37, -71, 174
        | 37, 0, 140
        | 37, -3, 175
        | 38, -3, 155
        | 38, 13, 184
        | 39, 0, 125
        | 39, -132, 57
        | 39, -137, 47
        | 39, 2, 198
        | 39, 1, 106
        | 39, 3, 65
        | 39, -143, 42
        | 39, 0, 192
        | 40, 6, 52
        | 40, 0, 91
        | 40, 5, 145
        | 40, -169, 73
        | 40, 3, 45
        | 40, 0, 133
        | 41, 1, 60
        | 41, 0, 133
        | 41, -157, 36
        | 41, -91, 52
        | 42, 0, 109
        | 42, 2, 23
        | 42, 0, 47
        | 43, 4, 56
        | 43, 1, 86
        | 43, -471, 169
        | 43, -428, 97
        | 43, 6, 152
        | 43, 6, 159
        | 44, 3, 172
        | 44, -143, 182
        | 44, 2, 106
        | 45, 2, 96
        | 45, 1, 125
        | 45, -1, 112
        | 45, -146, 52
        | 45, 2, 111
        | 45, -171, 24
        | 46, 9, 167
        | 46, 9, 16
        | 46, -5, 121
        | 46, -5, 103
        | 46, -392, 9
        | 46, -406, 33
        | 47, -2, 61
        | 47, 18, 88
        | 47, -7, 198
        | 47, -96, 91
        | 48, 8, 85
        | 48, 7, 148
        | 48, 20, 92
        | 48, -6, 199
        | 49, 4, 162
        | 49, -1, 138
        | 49, 5, 178
        | 49, 5, 47
        | 50, -445, 17
        | 50, -572, 19
        | 50, -455, 16
        | 50, -278, 105
        | 50, -571, 13
        | 50, -447, 43
        | 50, -2, 42
        | 50, -415, 127
        | 50, -325, 146
        | 50, 21, 106
        | 50, -537, 101
        | 50, -581, 142
        | 50, -385, 59
        | 50, -6, 47
        | 50, 0, 178
        | 50, -572, 80
        | 51, 3, 87
        | 51, 3, 122
        | 51, -41, 173
        | 51, 6, 22
        | 51, -2, 106
        | 51, 10, 55
        | 52, 4, 123
        | 52, -1, 50
        | 52, 8, 44
        | 53, -123, 129
        | 53, -147, 184
        | 53, 12, 151
        | 53, -115, 155
        | 53, -140, 187
        | 53, -133, 79
        | 53, 5, 196
        | 54, 14, 49
        | 54, 14, 162
        | 54, 6, 123
        | 54, 18, 103
        | 54, 10, 165
        | 54, 15, 76
        | 54, 5, 36
        | 55, -61, 22
        | 55, -84, 173
        | 55, -66, 90
        | 55, -64, 163
        | 55, 6, 154
        | 55, 7, 106
        | 55, -2, 198
        | 55, 9, 87
        | 56, -522, 160
        | 56, 1, 198
        | 56, -5, 167
        | 56, 0, 192
        | 56, 11, 39
        | 56, -255, 164
        | 57, 2, 198
        | 57, 1, 87
        | 57, -1, 42
        | 58, -90, 5
        | 58, 1, 200
        | 58, -86, 69
        | 58, -70, 116
        | 58, 0, 28
        | 58, 18, 136
        | 58, -60, 74
        | 59, 0, 99
        | 59, 1, 158
        | 59, -226, 86
        | 59, 2, 130
        | 59, -550, 159
        | 59, -387, 132
        | 59, -513, 179
        | 60, -104, 109
        | 60, 19, 47
        | 61, 20, 88
        | 61, 17, 87
        | 61, 24, 125
        | 61, 24, 65
        | 62, -4, 108
        | 62, 6, 26
        | 62, -80, 35
        | 63, 0, 130
        | 63, 0, 198
        | 63, 3, 16
        | 63, 3, 59
        | 63, 1, 86
        | 63, 1, 39
        | 63, 2, 50
        | 63, 0, 132
        | 64, 1, 197
        | 64, -90, 170
        | 64, -74, 140
        | 64, -78, 171
        | 65, -94, 42
        | 65, -112, 60
        | 65, -112, 88
        | 65, 6, 125
        | 65, 0, 192
        | 66, 2, 164
        | 66, -1, 47
        | 66, 0, 57
        | 66, 0, 43
        | 66, 5, 198
        | 67, 6, 201
        | 68, 3, 93
        | 68, 4, 59
        | 68, 0, 125
        | 68, 9, 102
        | 68, -448, 183
        | 68, 1, 63
        | 69, -3, 163
        | 69, -55, 81
        | 69, 8, 135
        | 69, -2, 198
        | 69, 5, 122
        | 69, 3, 31
        | 70, -3, 100
        | 70, 28, 199
        | 70, 2, 82
        | 70, -1, 166
        | 70, 27, 85
        | 70, 9, 128
        | 71, -157, 134
        | 71, 4, 29
        | 71, -225, 138
        | 71, -150, 114
        | 71, -243, 7
        | 71, -163, 176
        | 71, -107, 139
        | 71, -223, 168
        | 71, -174, 2
        | 71, -200, 124
        | 72, 18, 193
        | 73, 20, 24
        | 73, 14, 91
        | 73, 5, 144
        | 74, 14, 106
        | 74, 3, 198
        | 74, -2, 58
        | 74, 9, 136
        | 74, 7, 122
        | 74, -1, 90
        | 74, 1, 69
        | 75, 0, 164
        | 75, -504, 63
        | 75, -480, 43
        | 75, 9, 61
        | 75, 5, 86
        | 75, 5, 59
        | 75, 9, 39
        | 76, -117, 138
        | 76, -7, 131
        | 76, -7, 157
        | 76, 30, 176
        | 77, 0, 120
        | 77, 5, 65
        | 77, 11, 103
        | 77, -113, 73
        | 78, 4, 55
        | 78, 5, 69
        | 78, 4, 81
        | 79, -82, 155
        | 79, -55, 38
        | 79, 7, 129
        | 79, 5, 53
        | 79, -138, 25
        | 80, 6, 103
        | 80, -406, 59
        | 80, -1, 178
        | 80, 0, 42
        | 80, 6, 65
        | 80, -596, 191
        | 80, 3, 88
        | 80, -1, 50
        | 80, 5, 198
        | 80, -483, 144
        | 80, 2, 99
        | 80, -1, 60
        | 80, -238, 86
        | 80, -364, 15
        | 80, -557, 158
        | 80, -245, 16
        | 80, -434, 183
        | 80, 6, 106
        | 80, -594, 130
        | 80, -279, 105
        | 80, -454, 190
        | 80, -248, 127
        | 80, 1, 87
        | 80, -485, 146
        | 81, 14, 154
        | 81, -57, 78
        | 81, 14, 74
        | 82, -2, 128
        | 82, 25, 148
        | 83, -79, 27
        | 83, 19, 195
        | 83, -69, 21
        | 83, 23, 181
        | 83, -103, 8
        | 83, -94, 62
        | 83, -87, 118
        | 84, -2, 18
        | 84, 3, 199
        | 85, 14, 156
        | 85, -7, 84
        | 86, -380, 68
        | 86, 7, 16
        | 86, -482, 179
        | 86, 3, 88
        | 86, 7, 59
        | 87, -104, 103
        | 87, -128, 91
        | 87, -150, 23
        | 87, -99, 47
        | 87, 2, 198
        | 87, -71, 106
        | 87, -116, 57
        | 88, -4, 39
        | 88, 18, 198
        | 88, 6, 192
        | 88, 14, 87
        | 88, -107, 60
        | 88, -86, 23
        | 89, -80, 184
        | 89, -66, 155
        | 89, 15, 196
        | 89, -3, 53
        | 89, -3, 187
        | 89, 28, 94
        | 90, -66, 31
        | 90, 8, 154
        | 90, -60, 22
        | 90, 12, 122
        | 90, 0, 87
        | 90, -57, 10
        | 90, 2, 55
        | 91, 4, 60
        | 91, 12, 42
        | 91, -3, 198
        | 91, -2, 47
        | 91, 6, 61
        | 91, 3, 57
        | 92, 23, 70
        | 93, 23, 61
        | 93, 0, 167
        | 93, -329, 19
        | 93, 20, 186
        | 93, -568, 169
        | 93, -526, 97
        | 94, -136, 184
        | 94, 6, 53
        | 94, 9, 151
        | 94, -1, 187
        | 94, -132, 129
        | 94, -123, 147
        | 95, 23, 192
        | 95, 16, 111
        | 95, -4, 36
        | 95, -111, 104
        | 95, -6, 134
        | 96, -183, 24
        | 96, -124, 11
        | 96, 1, 91
        | 96, -164, 111
        | 96, -165, 165
        | 96, -159, 162
        | 96, -103, 77
        | 96, -176, 73
        | 96, 3, 39
        | 96, -126, 36
        | 96, 1, 17
        | 96, -74, 120
        | 97, 3, 137
        | 97, 3, 99
        | 97, 2, 32
        | 97, 0, 198
        | 97, 0, 50
        | 97, 6, 142
        | 98, 7, 51
        | 98, -45, 10
        | 98, 8, 55
        | 98, -5, 163
        | 98, 20, 154
        | 99, -89, 42
        | 99, 13, 109
        | 100, 13, 156
        | 100, 6, 18
        | 100, 7, 85
        | 100, 14, 199
        | 100, 17, 126
        | 100, -4, 84
        | 101, -550, 179
        | 101, 23, 56
        | 101, -474, 161
        | 101, 0, 102
        | 101, 5, 59
        | 102, -382, 189
        | 102, 0, 198
        | 102, 2, 125
        | 102, -435, 179
        | 102, 8, 91
        | 102, 0, 109
        | 102, 0, 86
        | 103, 0, 39
        | 103, 4, 87
        | 103, -82, 42
        | 103, 4, 60
        | 104, 3, 95
        | 104, -200, 2
        | 104, 7, 168
        | 104, 2, 45
        | 105, 6, 88
        | 105, -2, 23
        | 105, 4, 142
        | 105, -372, 17
        | 105, 5, 125
        | 105, 6, 39
        | 105, -436, 144
        | 105, 9, 198
        | 106, -107, 57
        | 106, 6, 198
        | 106, 5, 87
        | 106, -84, 88
        | 106, -140, 103
        | 107, 2, 103
        | 107, 3, 157
        | 108, -84, 26
        | 108, -3, 118
        | 108, 14, 195
        | 108, -64, 117
        | 108, -4, 83
        | 108, -64, 34
        | 108, 19, 21
        | 108, 14, 181
        | 109, -127, 23
        | 109, 2, 87
        | 109, 3, 103
        | 109, 1, 65
        | 110, -129, 25
        | 110, -5, 38
        | 111, -2, 107
        | 111, -99, 172
        | 111, -2, 39
        | 111, 9, 57
        | 111, 19, 50
        | 112, 14, 23
        | 112, -2, 36
        | 112, -91, 52
        | 112, -101, 73
        | 112, -148, 24
        | 113, 7, 190
        | 113, 0, 86
        | 114, -248, 124
        | 114, -2, 141
        | 114, 7, 42
        | 114, -176, 49
        | 114, 8, 112
        | 114, 19, 44
        | 114, -1, 139
        | 115, -483, 33
        | 115, -508, 132
        | 115, -2, 179
        | 116, -4, 58
        | 116, -74, 78
        | 117, 2, 34
        | 117, 5, 108
        | 117, 2, 21
        | 117, -97, 8
        | 117, 9, 118
        | 118, -64, 62
        | 118, -1, 20
        | 118, 4, 181
        | 119, 4, 188
        | 119, 7, 50
        | 119, -129, 176
        | 119, 6, 120
        | 119, -219, 114
        | 119, 7, 71
        | 119, -175, 131
        | 119, -207, 76
        | 119, 6, 16
        | 119, 0, 17
        | 119, 2, 109
        | 119, 1, 185
        | 120, -155, 188
        | 120, 24, 178
        | 120, 14, 65
        | 120, 9, 145
        | 120, -111, 45
        | 120, 3, 61
        | 120, -80, 77
        | 120, 4, 87
        | 120, -102, 133
        | 121, 10, 91
        | 121, 6, 198
        | 121, 2, 192
        | 121, -373, 97
        | 121, 9, 146
        | 122, -82, 22
        | 122, 1, 87
        | 122, 0, 55
        | 123, -263, 115
        | 123, -330, 141
        | 123, -1, 47
        | 123, -548, 127
        | 123, -347, 59
        | 123, 9, 61
        | 123, 7, 16
        | 124, 10, 88
        | 124, 4, 105
        | 124, -4, 16
        | 124, -161, 138
        | 124, 20, 180
        | 124, 11, 41
        | 124, 20, 144
        | 125, -145, 60
        | 125, -133, 65
        | 125, -150, 42
        | 125, -126, 91
        | 125, -117, 88
        | 125, 16, 192
        | 125, -147, 99
        | 125, -86, 39
        | 126, -4, 18
        | 126, 4, 199
        | 126, 10, 84
        | 127, -371, 150
        | 127, -392, 15
        | 127, -4, 191
        | 127, -6, 50
        | 127, -282, 141
        | 127, 19, 23
        | 127, -2, 87
        | 128, 21, 85
        | 128, 21, 199
        | 128, 7, 100
        | 128, -4, 18
        | 129, 9, 147
        | 129, 8, 187
        | 129, 6, 184
        | 130, -316, 179
        | 130, 0, 39
        | 130, 24, 42
        | 130, 10, 125
        | 130, 16, 60
        | 130, -582, 121
        | 130, -2, 142
        | 130, -363, 43
        | 131, 1, 91
        | 131, 2, 88
        | 131, -96, 76
        | 131, 0, 99
        | 131, 1, 176
        | 131, 3, 150
        | 131, 1, 165
        | 131, 0, 139
        | 131, 1, 50
        | 132, 18, 59
        | 132, 26, 46
        | 132, 0, 80
        | 132, 29, 142
        | 133, -139, 162
        | 133, 6, 198
        | 133, 0, 188
        | 133, -2, 141
        | 133, 9, 192
        | 133, -106, 52
        | 133, -174, 73
        | 134, 17, 192
        | 134, 18, 30
        | 134, -4, 109
        | 134, -130, 104
        | 135, -53, 69
        | 135, 17, 58
        | 135, -93, 74
        | 135, 3, 116
        | 135, 4, 200
        | 135, 8, 136
        | 135, 16, 28
        | 135, -80, 78
        | 136, -95, 74
        | 136, 8, 202
        | 136, -97, 5
        | 136, -7, 200
        | 136, -42, 28
        | 136, -67, 58
        | 136, -60, 116
        | 137, -4, 160
        | 137, 17, 178
        | 137, 16, 47
        | 137, 0, 66
        | 138, -8, 133
        | 138, 8, 23
        | 138, 15, 76
        | 138, -229, 7
        | 139, -92, 180
        | 139, -2, 73
        | 139, 18, 119
        | 139, 15, 88
        | 140, -42, 171
        | 140, 0, 64
        | 140, 6, 197
        | 140, -76, 174
        | 141, -371, 15
        | 141, -7, 144
        | 141, -548, 150
        | 141, 2, 23
        | 142, -343, 97
        | 142, -556, 130
        | 142, 5, 47
        | 142, -379, 19
        | 142, 9, 42
        | 142, 10, 88
        | 142, -225, 59
        | 142, 5, 123
        | 142, 3, 23
        | 142, -499, 132
        | 142, -539, 102
        | 143, 1, 195
        | 143, -93, 62
        | 143, 6, 21
        | 143, -66, 118
        | 143, 1, 83
        | 143, -76, 26
        | 144, 7, 80
        | 144, 5, 127
        | 145, -152, 111
        | 145, 8, 165
        | 145, -140, 77
        | 145, -147, 133
        | 145, -110, 107
        | 145, 0, 60
        | 145, 0, 57
        | 146, 15, 75
        | 146, 4, 86
        | 146, 6, 125
        | 146, -290, 132
        | 146, 11, 39
        | 146, 12, 103
        | 147, -78, 79
        | 147, 5, 89
        | 147, -103, 155
        | 147, 2, 196
        | 147, 0, 187
        | 147, 6, 94
        | 148, 6, 166
        | 149, 6, 115
        | 149, 2, 101
        | 149, -359, 113
        | 149, -565, 132
        | 150, 5, 16
        | 150, -462, 17
        | 150, 21, 88
        | 150, 21, 198
        | 150, 10, 91
        | 150, 12, 141
        | 150, -6, 42
        | 151, -101, 110
        | 151, -114, 79
        | 151, -88, 187
        | 151, 9, 196
        | 151, -120, 147
        | 151, -98, 184
        | 151, -145, 94
        | 151, -109, 38
        | 152, -431, 169
        | 152, -276, 177
        | 152, 10, 68
        | 152, 9, 32
        | 152, 14, 59
        | 153, 0, 72
        | 153, -5, 193
        | 154, 4, 106
        | 154, -57, 122
        | 154, -90, 22
        | 154, -66, 163
        | 154, 2, 198
        | 154, 0, 87
        | 154, -90, 55
        | 155, 21, 94
        | 155, 9, 151
        | 155, 8, 89
        | 155, -61, 25
        | 155, -4, 79
        | 155, 7, 129
        | 156, 10, 84
        | 156, 10, 126
        | 156, 17, 199
        | 156, 0, 18
        | 157, 3, 105
        | 157, -6, 178
        | 157, 8, 60
        | 157, 6, 112
        | 157, 5, 192
        | 158, 3, 109
        | 158, 0, 130
        | 158, -560, 59
        | 158, -381, 160
        | 158, -308, 75
        | 158, -388, 113
        | 159, 15, 63
        | 159, -419, 152
        | 159, -9, 19
        | 159, -543, 13
        | 159, -8, 158
        | 160, 4, 46
        | 160, 22, 183
        | 160, 0, 59
        | 160, 16, 142
        | 161, 9, 177
        | 161, -2, 115
        | 162, -68, 157
        | 162, 12, 123
        | 162, 6, 61
        | 162, -65, 45
        | 162, -104, 24
        | 162, 11, 41
        | 163, 8, 198
        | 163, 0, 154
        | 163, -39, 22
        | 163, -5, 122
        | 163, -59, 51
        | 163, 23, 106
        | 163, -6, 87
        | 163, 4, 55
        | 163, 8, 90
        | 164, -495, 186
        | 164, -1, 16
        | 164, 14, 158
        | 164, -389, 113
        | 164, 0, 86
        | 164, 4, 178
        | 164, 7, 101
        | 164, 18, 149
        | 165, -79, 36
        | 165, 3, 198
        | 165, 0, 96
        | 165, 0, 150
        | 165, -98, 77
        | 165, 1, 42
        | 165, 1, 50
        | 165, 3, 142
        | 165, -127, 120
        | 166, 1, 100
        | 166, 5, 199
        | 166, -1, 156
        | 166, 0, 128
        | 167, 6, 80
        | 167, -396, 190
        | 167, 3, 106
        | 167, -521, 169
        | 167, 3, 102
        | 167, -380, 43
        | 167, -1, 109
        | 168, 7, 105
        | 168, -151, 134
        | 168, 9, 178
        | 168, 0, 165
        | 168, -126, 30
        | 168, -135, 2
        | 168, 8, 71
        | 169, 12, 186
        | 169, 0, 93
        | 169, 0, 161
        | 170, 3, 174
        | 170, 2, 64
        | 170, -3, 175
        | 170, 0, 140
        | 171, -86, 174
        | 171, -70, 170
        | 171, 3, 197
        | 171, -36, 37
        | 171, 2, 64
        | 171, 4, 140
        | 172, 9, 165
        | 172, 23, 36
        | 172, 1, 105
        | 172, -4, 50
        | 172, -1, 45
        | 173, 0, 31
        | 173, 3, 98
        | 174, 0, 197
        | 174, 28, 175
        | 174, -56, 3
        | 174, -26, 170
        | 174, 7, 171
        | 174, 28, 37
        | 175, -79, 170
        | 175, -1, 140
        | 175, 6, 171
        | 176, 11, 150
        | 176, -240, 138
        | 176, 14, 124
        | 176, -127, 131
        | 177, 17, 158
        | 177, -6, 33
        | 177, 17, 23
        | 178, -486, 123
        | 178, -283, 142
        | 178, -467, 127
        | 178, -341, 113
        | 178, -285, 59
        | 178, 3, 91
        | 178, -278, 149
        | 178, -496, 160
        | 178, -576, 50
        | 178, -335, 46
        | 178, -374, 183
        | 178, -367, 80
        | 178, -363, 75
        | 178, 0, 47
        | 179, 9, 80
        | 179, 21, 103
        | 179, -400, 121
        | 179, -249, 75
        | 179, -5, 101
        | 179, 14, 47
        | 180, 20, 65
        | 180, 24, 185
        | 180, 0, 114
        | 181, 3, 202
        | 181, -1, 195
        | 182, 12, 73
        | 183, 25, 91
        | 183, -1, 63
        | 183, 27, 68
        | 183, -347, 9
        | 184, 6, 94
        | 184, -136, 79
        | 184, 0, 187
        | 184, 5, 147
        | 185, -183, 119
        | 185, 2, 71
        | 185, 13, 65
        | 185, 14, 47
        | 186, -437, 177
        | 186, 13, 113
        | 186, -421, 189
        | 187, -146, 94
        | 187, -122, 147
        | 187, 1, 53
        | 188, 15, 192
        | 188, -159, 73
        | 188, 5, 103
        | 188, -71, 11
        | 188, -95, 111
        | 188, 14, 91
        | 188, 0, 77
        | 189, -3, 159
        | 189, 4, 160
        | 189, 15, 93
        | 189, 13, 56
        | 189, 6, 97
        | 190, 8, 121
        | 190, 8, 132
        | 190, 8, 115
        | 190, 6, 63
        | 190, 1, 91
        | 190, 6, 158
        | 190, -409, 43
        | 191, 11, 99
        | 191, 0, 16
        | 191, -1, 105
        | 191, 17, 42
        | 191, 11, 91
        | 192, 10, 202
        | 193, 1, 202
        | 194, 3, 202
        | 195, 3, 202
        | 196, -159, 25
        | 196, -146, 187
        | 196, -67, 151
        | 196, 8, 202
        | 196, -138, 53
        | 196, -104, 79
        | 197, -66, 170
        | 197, -48, 140
        | 197, -90, 174
        | 197, -56, 64
        | 197, -81, 37
        | 197, 4, 202
        | 198, 3, 202
        | 199, 8, 202
        | 200, 6, 202
        | 201, 3, 202 |];
